Running Algorithms on dataset: c101
BKS cost: 827.3
BKS solution:
Route #1: 5 3 7 8 10 11 9 6 4 2 1 75
Route #2: 13 17 18 19 15 16 14 12
Route #3: 20 24 25 27 29 30 28 26 23 22 21
Route #4: 32 33 31 35 37 38 39 36 34
Route #5: 43 42 41 40 44 46 45 48 51 50 52 49 47
Route #6: 57 55 54 53 56 58 60 59
Route #7: 67 65 63 62 74 72 61 64 68 66 69
Route #8: 81 78 76 71 70 73 77 79 80
Route #9: 90 87 86 83 82 84 85 88 89 91
Route #10: 98 96 95 94 92 93 97 100 99

HGS cost: 827.3
HGS solution:
Route #1: 20 24 25 27 29 30 28 26 23 22 21 
Route #2: 32 33 31 35 37 38 39 36 34 
Route #3: 90 87 86 83 82 84 85 88 89 91 
Route #4: 98 96 95 94 92 93 97 100 99 
Route #5: 57 55 54 53 56 58 60 59 
Route #6: 67 65 63 62 74 72 61 64 68 66 69 
Route #7: 13 17 18 19 15 16 14 12 
Route #8: 5 3 7 8 10 11 9 6 4 2 1 75 
Route #9: 43 42 41 40 44 46 45 48 51 50 52 49 47 
Route #10: 81 78 76 71 70 73 77 79 80 

GLS cost: 827.3
GLS solution:
Route #1: 67 65 63 62 74 72 61 64 68 66 69
Route #2: 13 17 18 19 15 16 14 12
Route #3: 81 78 76 71 70 73 77 79 80
Route #4: 43 42 41 40 44 46 45 48 51 50 52 49 47
Route #5: 90 87 86 83 82 84 85 88 89 91
Route #6: 98 96 95 94 92 93 97 100 99
Route #7: 5 3 7 8 10 11 9 6 4 2 1 75
Route #8: 32 33 31 35 37 38 39 36 34
Route #9: 57 55 54 53 56 58 60 59
Route #10: 20 24 25 27 29 30 28 26 23 22 21

ACO cost: 852.9482006279472
ACO solution:
Route #1: 67 65 63 62 74 72 61 64 68 66 69
Route #2: 43 42 41 40 44 46 45 48 51 50 52 49
Route #3: 5 3 7 8 10 11 9 6 4 2 1 75
Route #4: 20 24 25 27 29 30 28 26 23 22 21 47
Route #5: 90 87 86 83 82 84 85 88 89 91
Route #6: 98 96 95 94 92 93 97 100 99
Route #7: 13 17 18 19 15 16 14 12
Route #8: 57 55 54 53 56 58 60 59
Route #9: 32 33 31 35 37 38 39 36 34
Route #10: 81 78 76 71 70 73 77 79 80

SA cost: 934.893376927735
SA solution:
Route #1: 20 24 25 27 29 30 28 26 23 22 21
Route #2: 32 31 59 68 69
Route #3: 5 3 7 8 10 11 9 6 4 2 1 75
Route #4: 57 55 54 53 56 58 60
Route #5: 90 87 86 83 82 84 85 88 89 91
Route #6: 13 17 18 19 15 16 14 12
Route #7: 98 96 95 94 92 93 97 100 99
Route #8: 33 35 37 38 39 36 34 52 49 47
Route #9: 43 42 41 40 44 46 45 48 51 50
Route #10: 81 78 76 71 70 73 77 79 80
Route #11: 67 65 63 62 74 72 61 64 66

Algorithms	No. of Routes	Costs	Gap(%)	Runtime(seconds)
BKS	10	827.3	-	-
HGS	10	827.3	0.0	300.2275469303131
GLS	10	827.3	0.0	300.1685287952423
ACO	10	852.9	3.09	425.4586658477783
SA	11	934.9	13.01	362.4008650779724